#######################



#######################
Set parameter TimeLimit to value 500
Set parameter SoftMemLimit to value 125
Set parameter LogFile to value 1202-MIPFocus0-Presolve2-TimeLimit500-k16x240-0.log
Set parameter Presolve to value 2
Set parameter Seed to value 10
Using license file /opt/gurobi/gurobi.lic

Gurobi Optimizer version 12.0.2 build v12.0.2rc0 (linux64 - "Ubuntu 22.04.4 LTS")
Copyright (c) 2025, Gurobi Optimization, LLC

Read MPS format model from file /miplib2010/k16x240.mps.bz2
Reading time = 0.00 seconds
k16x240: 256 rows, 480 columns, 960 nonzeros

Using Gurobi shared library /nfs/shared/static-builds/gurobi1202

CPU model: Intel(R) Xeon(R) E-2388G CPU @ 3.20GHz, instruction set [SSE2|AVX|AVX2|AVX512]
Thread count: 8 physical cores, 16 logical processors, using up to 16 threads

Non-default parameters:
TimeLimit  500
SoftMemLimit  125
Presolve  2
Seed  10

Optimize a model with 256 rows, 480 columns and 960 nonzeros
Model fingerprint: 0x4e80885f
Variable types: 240 continuous, 240 integer (240 binary)
Coefficient statistics:
  Matrix range     [1e+00, 1e+03]
  Objective range  [1e+00, 1e+03]
  Bounds range     [1e+00, 1e+03]
  RHS range        [4e+00, 4e+02]
Found heuristic solution: objective 20380.000000
Presolve time: 0.00s
Presolved: 256 rows, 480 columns, 960 nonzeros
Variable types: 240 continuous, 240 integer (240 binary)
Root relaxation presolve removed 241 rows and 240 columns
Root relaxation presolved: 15 rows, 240 columns, 450 nonzeros


Root relaxation: objective 2.769838e+03, 16 iterations, 0.00 seconds (0.00 work units)

    Nodes    |    Current Node    |     Objective Bounds      |     Work
 Expl Unexpl |  Obj  Depth IntInf | Incumbent    BestBd   Gap | It/Node Time

     0     0 2769.83800    0   14 20380.0000 2769.83800  86.4%     -    0s
H    0     0                    11359.000000 2769.83800  75.6%     -    0s
H    0     0                    11262.000000 2769.83800  75.4%     -    0s
H    0     0                    11261.000000 2769.83800  75.4%     -    0s
H    0     0                    11100.000000 2769.83800  75.0%     -    0s
H    0     0                    11018.000000 2769.83800  74.9%     -    0s
H    0     0                    10993.000000 2769.83800  74.8%     -    0s
H    0     0                    10912.000000 8062.79125  26.1%     -    0s
     0     0 8062.79125    0   26 10912.0000 8062.79125  26.1%     -    0s
H    0     0                    10851.000000 8179.10853  24.6%     -    0s
H    0     0                    10787.000000 8179.10853  24.2%     -    0s
     0     0 8179.10853    0   25 10787.0000 8179.10853  24.2%     -    0s
     0     0 8179.10853    0   26 10787.0000 8179.10853  24.2%     -    0s
     0     0 8528.16906    0   24 10787.0000 8528.16906  20.9%     -    0s
     0     0 8539.52379    0   32 10787.0000 8539.52379  20.8%     -    0s
     0     0 8548.03675    0   29 10787.0000 8548.03675  20.8%     -    0s
     0     0 8707.72966    0   34 10787.0000 8707.72966  19.3%     -    0s
H    0     0                    10765.000000 8709.24673  19.1%     -    0s
     0     0 8791.34027    0   30 10765.0000 8791.34027  18.3%     -    0s
     0     0 8794.98444    0   30 10765.0000 8794.98444  18.3%     -    0s
     0     0 8871.52606    0   30 10765.0000 8871.52606  17.6%     -    0s
     0     0 8888.02203    0   30 10765.0000 8888.02203  17.4%     -    0s
     0     0 8903.30853    0   33 10765.0000 8903.30853  17.3%     -    0s
     0     0 9052.50731    0   25 10765.0000 9052.50731  15.9%     -    0s
H    0     0                    10681.000000 9052.64680  15.2%     -    0s
     0     0 9067.06325    0   40 10681.0000 9067.06325  15.1%     -    0s
     0     0 9084.11968    0   39 10681.0000 9084.11968  15.0%     -    0s
     0     0 9088.54121    0   40 10681.0000 9088.54121  14.9%     -    0s
     0     0 9113.29663    0   28 10681.0000 9113.29663  14.7%     -    0s
     0     0 9113.49160    0   28 10681.0000 9113.49160  14.7%     -    0s
     0     2 9113.65282    0   28 10681.0000 9113.65282  14.7%     -    0s
H  151   184                    10678.000000 9138.42900  14.4%  19.9    0s
H 2040  1361                    10674.000000 9433.76945  11.6%  17.6    0s
 36015 13185 10500.1082   29    7 10674.0000 10018.9273  6.14%  26.9    5s
 76140 17729 10504.9950   40   19 10674.0000 10210.5639  4.34%  29.2   10s
 115348 14357     cutoff   36      10674.0000 10364.6280  2.90%  29.8   15s

Cutting planes:
  Lift-and-project: 17
  Cover: 60
  Implied bound: 24
  Dual implied bound: 32
  MIR: 173
  Flow cover: 286
  Flow path: 44
  Inf proof: 4
  Zero half: 5
  Network: 65
  Relax-and-lift: 1

Explored 149023 nodes (4253394 simplex iterations) in 18.66 seconds (25.33 work units)
Thread count was 16 (of 16 available processors)

Solution count 10: 10674 10678 10681 ... 11100

Optimal solution found (tolerance 1.00e-04)
Best objective 1.067400000000e+04, best bound 1.067400000000e+04, gap 0.0000%
